202770
351732
496503
380738
639333
455270
801540
856636
586870
516768
894218
851009
891885
87371
509661
988462
331742
59888
122492
951035
564880
821659
859108
86249
183066
435211
983871
670791
522023
783826
149690
887584
617048
945807
311028
838724
361672
632710
444754
968241
96875
152409
961071
761375
564943
444965
691249
262501
21637
867068
72375
544459
340249
345530
522862
650797
352764
988806
278275
882568
702915
945639
48178
375716
845000
99072
771005
92510
200110
34922
252473
743761
221315
929580
406786
859360
410302
471129
115023
263651
179879
662663
786784
793324
798998
429735
604564
578677
395027
725894
953239
67175
53341
990239
635448
74441
731462
293402
301592
856644
